# Copyright 2014 - Anthony Awuley
# Brock University
# Computer Science Department

# GENERAL parameters
number-of-experiments                = 15
generations                          = 150
population-size                      = 4000
stop-when-solved                     = true
crossover-probability                = 0.9
mutation-probability                 = 0.1
selection-pressure                   = 0.9

# How many times the genotype is allowed to wrap
max-repairs                          = 1

# SELECTION
selection-operation                  = operator.operations.selection.TournamentSelection
tournament-size                      = 3
 
# REPRODUCTION operators
# Probability of crossover. State if the point of crossover is fixed on both chromosomes (The size will always be the same) or not
mutation_operation                   = Operator.Operations.IntFlipMutation
elite-size                           = 5
 
 
# The chromosomes are fixed length structures and doesnt change to mutation and crossover. 
# The initialiser will random create integer strings in this case of length specified
initial-chromosome-size              = 50
  
# FITNESS function - Fitness function requires the full package name
#fitness-function                    = fitnessevaluation.singleObjective.WeightedSum
#fitness-function                    = fitnessevaluation.simplefitness.FitnessExperimental
#fitness-function                    = fitnessevaluation.vrptw.WS
#fitness-function                    = fitnessevaluation.vrptw.SOR
#fitness-function                    = fitnessevaluation.vrptw.PR
#fitness-function                    = fitnessevaluation.eval.TSP
fitness-function                     = fitnessevaluation.eval.CVRP

# EC
main-class                           = main.Run

# INITIALISATION - Specifies which module to use as an initialiser initial population. 
initialiser                          = operator.initialiser.Initialise
#gene-representation                 = individuals.representation.VRPTW
gene-representation                  = individuals.representation.hybrid.TSP

# REPLACEMENT
replacement-operation                = operator.operations.replacement.Generational

# CROSSOVER MODULE
#crossover-operation                 = operator.crossover.CycleCrossover
crossover-operation                  = operator.crossover.UniformOrderCrossover

# MUTATION MODULE
mutation-operation                   = operator.mutation.Inversion
 

# Specification of output statistics files
number-of-individuals                = 1
#stats-operation                     = util.statistics.mop.ParethoStatistics
#stats-operation                     = util.statistics.mop.SumOfRankStatistics
#stats-operation                     = util.statistics.BasicStatistics
#stats-operation                     = util.statistics.sob.TSPStatistics
stats-operation                      = util.statistics.mop.CVRPHybridStatistics


NAME : eil51
COMMENT : (Eilon et al.)
TYPE : CVRP
DIMENSION : 51
EDGE_WEIGHT_TYPE : EUC_2D
nodes                                = 50
stat-out                             = eil51
vehicle-capacity                     = 160
NODE_COORD_SECTION
1	30	40	0
2	37	52	7
3	49	49	30
4	52	64	16
5	20	26	9
6	40	30	21
7	21	47	15
8	17	63	19
9	31	62	23
10	52	33	11
11	51	21	5
12	42	41	19
13	31	32	29
14	5	25	23
15	12	42	21
16	36	16	10
17	52	41	15
18	27	23	3
19	17	33	41
20	13	13	9
21	57	58	28
22	62	42	8
23	42	57	8
24	16	57	16
25	8	52	10
26	7	38	28
27	27	68	7
28	30	48	15
29	43	67	14
30	58	48	6
31	58	27	19
32	37	69	11
33	38	46	12
34	46	10	23
35	61	33	26
36	62	63	17
37	63	69	6
38	32	22	9
39	45	35	15
40	59	15	14
41	5	6	7
42	10	17	27
43	21	10	13
44	5	64	11
45	30	15	16
46	39	10	10
47	32	39	5
48	25	32	25
49	25	55	17
50	48	28	18
51	56	37	10

DEPOT_SECTION

EOF
